<number of tasks>
58

<cycle time>
68

<task times>
1 10
2 53
3 41
4 36
5 35
6 17
7 34
8 23
9 14
10 52
11 33
12 34
13 12
14 52
15 12
16 33
17 44
18 7
19 15
20 13
21 29
22 37
23 43
24 23
25 24
26 9
27 16
28 12
29 26
30 22
31 51
32 47
33 34
34 23
35 12
36 52
37 12
38 33
39 44
40 7
41 15
42 13
43 29
44 37
45 43
46 23
47 24
48 9
49 16
50 12
51 26
52 12
53 52
54 12
55 33
56 44
57 7
58 15

<precedence relations>
1,9
2,25
3,21
3,22
4,10
5,36
6,23
6,24
7,43
8,44
9,11
11,13
11,14
11,15
12,17
13,17
14,17
15,17
16,18
17,20
18,19
19,23
20,21
20,25
21,26
21,44
22,27
23,31
24,31
25,38
26,29
27,30
28,32
28,33
29,31
30,34
31,36
32,45
33,35
34,36
35,43
36,37
36,38
37,39
37,40
37,41
38,52
39,43
40,43
41,42
42,43
43,45
44,45
45,46
45,48
45,49
46,47
46,50
47,51
48,55
49,58
50,58
51,52
52,53
53,54
54,55
54,56
55,57
56,57
57,58

<setup times forward>
1,2:2
1,4:1
1,5:1
1,6:1
1,7:2
1,10:1
1,12:1
1,16:1
1,18:2
1,22:1
1,24:3
1,27:1
1,28:2
1,30:3
1,32:2
1,33:2
1,34:3
1,35:1
2,1:2
2,3:2
2,4:1
2,5:3
2,6:1
2,8:2
2,9:2
2,10:3
2,11:3
2,12:1
2,13:3
2,14:3
2,15:1
2,16:1
2,17:2
2,18:4
2,19:2
2,20:4
2,21:1
2,22:1
2,23:2
2,24:5
2,25:5
2,26:2
2,27:3
2,29:1
2,30:5
2,32:4
2,34:5
2,35:3
2,36:5
2,37:3
2,39:3
2,40:1
2,41:1
2,42:1
2,43:1
2,44:1
2,48:1
2,50:1
3,2:2
3,4:1
3,5:1
3,6:1
3,7:2
3,10:1
3,11:1
3,12:1
3,13:1
3,14:1
3,15:1
3,16:1
3,18:2
3,20:2
3,21:1
3,22:1
3,24:3
3,25:3
3,28:2
3,32:2
3,33:2
3,35:1
4,1:1
4,2:1
4,3:1
4,5:2
4,7:1
4,8:1
4,9:1
4,10:2
4,11:2
4,13:2
4,14:2
4,17:1
4,18:3
4,19:1
4,20:3
4,23:1
4,24:4
4,25:4
4,26:1
4,27:2
4,28:1
4,30:4
4,31:1
4,32:3
4,33:1
4,34:4
4,35:2
4,36:4
4,37:2
4,38:4
4,39:2
4,45:1
4,46:1
4,47:1
4,49:1
4,51:1
4,52:3
4,53:3
4,56:2
4,57:2
4,58:2
5,1:1
5,2:3
5,3:1
5,4:2
5,6:2
5,7:3
5,8:1
5,9:1
5,12:2
5,15:2
5,16:2
5,17:1
5,18:1
5,19:1
5,20:1
5,21:2
5,22:2
5,23:1
5,24:2
5,25:2
5,26:1
5,28:3
5,29:2
5,30:2
5,31:3
5,32:1
5,33:3
5,34:2
5,36:2
5,44:2
6,1:1
6,2:1
6,3:1
6,5:2
6,7:1
6,8:1
6,9:1
6,10:2
6,11:2
6,13:2
6,14:2
6,17:1
6,18:3
6,19:1
6,20:3
6,23:1
6,24:4
6,25:4
6,26:1
6,27:2
6,28:1
6,30:4
6,32:3
6,33:1
6,34:4
6,35:2
7,1:2
7,3:2
7,4:1
7,5:3
7,6:1
7,8:2
7,9:2
7,10:3
7,11:3
7,12:1
7,13:3
7,14:3
7,15:1
7,16:1
7,17:2
7,18:4
7,19:2
7,20:4
7,21:1
7,22:1
7,23:2
7,24:5
7,25:5
7,26:2
7,27:3
7,29:1
7,30:5
7,32:4
7,34:5
7,35:3
7,36:5
7,37:3
7,38:5
7,39:3
7,40:1
7,41:1
7,42:1
7,43:1
7,44:1
8,2:2
8,4:1
8,5:1
8,6:1
8,7:2
8,10:1
8,11:1
8,12:1
8,13:1
8,14:1
8,15:1
8,16:1
8,18:2
8,20:2
8,21:1
8,22:1
8,24:3
8,25:3
8,27:1
8,28:2
8,29:1
8,30:3
8,31:2
8,32:2
8,33:2
8,34:3
8,35:1
8,36:3
8,37:1
8,38:3
8,39:1
8,40:1
8,41:1
8,42:1
8,43:1
8,44:1
9,2:2
9,4:1
9,5:1
9,6:1
9,7:2
9,10:1
9,11:1
9,12:1
9,16:1
9,18:2
9,22:1
9,24:3
9,27:1
9,28:2
9,30:3
9,32:2
9,33:2
9,34:3
9,35:1
10,1:1
10,2:3
10,3:1
10,6:2
10,7:3
10,8:1
10,9:1
10,12:2
10,15:2
10,16:2
10,17:1
10,18:1
10,19:1
10,20:1
10,21:2
10,22:2
10,23:1
10,24:2
10,25:2
10,26:1
10,28:3
10,29:2
10,30:2
10,31:3
10,32:1
10,33:3
10,34:2
10,36:2
10,38:2
10,40:2
10,41:2
10,42:2
10,43:2
10,44:2
10,45:3
10,46:3
10,47:3
10,48:2
10,49:3
10,50:2
10,51:3
10,52:1
10,53:1
10,54:2
10,55:2
11,2:3
11,3:1
11,4:2
11,6:2
11,7:3
11,8:1
11,12:2
11,15:2
11,16:2
11,18:1
11,19:1
11,22:2
11,23:1
11,24:2
11,28:3
11,30:2
11,32:1
11,33:3
11,34:2
12,1:1
12,2:1
12,3:1
12,5:2
12,7:1
12,8:1
12,9:1
12,10:2
12,11:2
12,13:2
12,14:2
12,17:1
12,18:3
12,19:1
12,23:1
12,24:4
12,27:2
12,28:1
12,30:4
12,32:3
12,33:1
12,34:4
12,35:2
13,2:3
13,3:1
13,4:2
13,6:2
13,7:3
13,8:1
13,12:2
13,15:2
13,16:2
13,17:1
13,18:1
13,19:1
13,22:2
13,23:1
13,24:2
13,28:3
13,30:2
13,32:1
13,33:3
13,34:2
14,2:3
14,3:1
14,4:2
14,6:2
14,7:3
14,8:1
14,12:2
14,15:2
14,16:2
14,17:1
14,18:1
14,19:1
14,22:2
14,23:1
14,24:2
14,28:3
14,30:2
14,32:1
14,33:3
14,34:2
15,2:1
15,3:1
15,5:2
15,7:1
15,8:1
15,10:2
15,13:2
15,14:2
15,17:1
15,18:3
15,19:1
15,23:1
15,24:4
15,27:2
15,28:1
15,30:4
15,32:3
15,33:1
15,34:4
15,35:2
16,1:1
16,2:1
16,3:1
16,5:2
16,7:1
16,8:1
16,9:1
16,10:2
16,11:2
16,13:2
16,14:2
16,17:1
16,18:3
16,20:3
16,24:4
16,25:4
16,26:1
16,27:2
16,28:1
16,30:4
16,32:3
16,33:1
16,34:4
16,35:2
17,2:2
17,4:1
17,5:1
17,6:1
17,7:2
17,10:1
17,16:1
17,18:2
17,20:2
17,22:1
17,24:3
17,27:1
17,28:2
17,30:3
17,32:2
17,33:2
17,34:3
17,35:1
18,1:2
18,2:4
18,3:2
18,4:3
18,5:1
18,6:3
18,7:4
18,8:2
18,9:2
18,10:1
18,11:1
18,12:3
18,13:1
18,14:1
18,15:3
18,17:2
18,19:2
18,21:3
18,22:3
18,24:1
18,25:1
18,26:2
18,27:1
18,28:4
18,29:3
18,30:1
18,33:4
18,34:1
18,35:1
18,44:3
19,2:2
19,4:1
19,5:1
19,6:1
19,7:2
19,10:1
19,11:1
19,12:1
19,13:1
19,14:1
19,15:1
19,20:2
19,21:1
19,22:1
19,24:3
19,25:3
19,27:1
19,28:2
19,29:1
19,30:3
19,32:2
19,33:2
19,34:3
19,35:1
19,44:1
20,2:4
20,3:2
20,4:3
20,5:1
20,6:3
20,7:4
20,8:2
20,10:1
20,16:3
20,19:2
20,21:3
20,22:3
20,23:2
20,24:1
20,25:1
20,27:1
20,28:4
20,30:1
20,33:4
20,34:1
20,35:1
21,2:1
21,5:2
21,7:1
21,8:1
21,10:2
21,18:3
21,19:1
21,23:1
21,24:4
21,25:4
21,26:1
21,27:2
21,28:1
21,30:4
21,32:3
21,33:1
21,34:4
21,35:2
22,1:1
22,2:1
22,5:2
22,7:1
22,8:1
22,9:1
22,10:2
22,11:2
22,13:2
22,14:2
22,17:1
22,18:3
22,19:1
22,20:3
22,23:1
22,24:4
22,25:4
22,26:1
22,27:2
22,28:1
22,31:1
22,32:3
22,33:1
22,35:2
23,2:2
23,4:1
23,5:1
23,7:2
23,10:1
23,11:1
23,12:1
23,13:1
23,14:1
23,15:1
23,20:2
23,21:1
23,22:1
23,24:3
23,25:3
23,27:1
23,28:2
23,29:1
23,30:3
23,31:2
23,32:2
23,33:2
23,34:3
23,35:1
23,44:1
24,1:3
24,2:5
24,3:3
24,4:4
24,5:2
24,7:5
24,8:3
24,9:3
24,10:2
24,11:2
24,12:4
24,13:2
24,14:2
24,15:4
24,16:4
24,17:3
24,18:1
24,19:3
24,20:1
24,21:4
24,22:4
24,23:3
24,26:3
24,27:2
24,28:5
24,29:4
24,31:5
24,32:1
24,33:5
24,35:2
24,44:4
25,3:3
25,4:4
25,5:2
25,6:4
25,7:5
25,8:3
25,10:2
25,16:4
25,18:1
25,19:3
25,21:4
25,22:4
25,23:3
25,26:3
25,27:2
25,28:5
25,29:4
25,31:5
25,32:1
25,33:5
25,35:2
25,37:2
25,39:2
25,40:4
25,41:4
25,42:4
25,43:4
25,44:4
25,45:5
25,46:5
25,47:5
25,48:4
25,49:5
25,50:4
25,51:5
26,2:2
26,4:1
26,5:1
26,6:1
26,7:2
26,10:1
26,16:1
26,18:2
26,22:1
26,24:3
26,25:3
26,27:1
26,28:2
26,29:1
26,30:3
26,32:2
26,33:2
26,34:3
26,35:1
26,44:1
27,1:1
27,2:3
27,4:2
27,6:2
27,7:3
27,8:1
27,9:1
27,12:2
27,15:2
27,16:2
27,17:1
27,18:1
27,19:1
27,20:1
27,21:2
27,23:1
27,24:2
27,25:2
27,26:1
27,28:3
27,29:2
27,30:2
27,31:3
27,32:1
27,33:3
27,44:2
28,1:2
28,3:2
28,4:1
28,5:3
28,6:1
28,8:2
28,9:2
28,10:3
28,11:3
28,12:1
28,13:3
28,14:3
28,15:1
28,16:1
28,17:2
28,18:4
28,19:2
28,20:4
28,21:1
28,22:1
28,23:2
28,24:5
28,25:5
28,26:2
28,27:3
28,29:1
28,30:5
28,32:4
28,34:5
28,36:5
28,37:3
28,38:5
28,39:3
28,40:1
28,41:1
28,42:1
28,44:1
29,2:1
29,5:2
29,7:1
29,8:1
29,10:2
29,18:3
29,19:1
29,23:1
29,24:4
29,25:4
29,27:2
29,28:1
29,30:4
29,31:1
29,32:3
29,33:1
29,34:4
29,35:2
30,1:3
30,2:5
30,4:4
30,5:2
30,6:4
30,7:5
30,8:3
30,9:3
30,10:2
30,11:2
30,12:4
30,13:2
30,14:2
30,15:4
30,16:4
30,17:3
30,18:1
30,19:3
30,20:1
30,21:4
30,23:3
30,26:3
30,28:5
30,29:4
30,31:5
30,32:1
30,33:5
30,35:2
30,44:4
31,4:1
31,5:3
31,8:2
31,10:3
31,22:1
31,25:5
31,27:3
31,30:5
31,32:4
31,34:5
31,35:3
31,36:5
31,44:1
32,1:2
32,2:4
32,3:2
32,4:3
32,5:1
32,6:3
32,7:4
32,8:2
32,9:2
32,10:1
32,11:1
32,12:3
32,13:1
32,14:1
32,15:3
32,16:3
32,17:2
32,19:2
32,21:3
32,22:3
32,23:2
32,24:1
32,25:1
32,26:2
32,27:1
32,29:3
32,30:1
32,31:4
32,33:4
32,34:1
32,35:1
32,36:1
32,37:1
32,38:1
32,39:1
32,40:3
32,41:3
32,42:3
32,43:3
32,44:3
32,45:4
33,1:2
33,3:2
33,4:1
33,5:3
33,6:1
33,8:2
33,9:2
33,10:3
33,11:3
33,12:1
33,13:3
33,14:3
33,15:1
33,16:1
33,17:2
33,18:4
33,19:2
33,20:4
33,21:1
33,22:1
33,23:2
33,24:5
33,25:5
33,26:2
33,27:3
33,29:1
33,30:5
33,32:4
33,34:5
33,35:3
33,36:5
33,37:3
33,38:5
33,39:3
33,40:1
33,41:1
33,42:1
33,44:1
34,1:3
34,2:5
34,4:4
34,5:2
34,6:4
34,7:5
34,8:3
34,9:3
34,10:2
34,11:2
34,12:4
34,13:2
34,14:2
34,15:4
34,16:4
34,17:3
34,18:1
34,19:3
34,20:1
34,21:4
34,23:3
34,26:3
34,28:5
34,29:4
34,31:5
34,32:1
34,33:5
34,35:2
34,44:4
35,1:1
35,2:3
35,3:1
35,4:2
35,6:2
35,7:3
35,8:1
35,9:1
35,12:2
35,15:2
35,16:2
35,17:1
35,18:1
35,19:1
35,20:1
35,21:2
35,22:2
35,23:1
35,24:2
35,25:2
35,26:1
35,29:2
35,30:2
35,31:3
35,32:1
35,34:2
35,36:2
35,38:2
35,40:2
35,41:2
35,42:2
35,43:2
35,44:2
36,2:5
36,4:4
36,7:5
36,8:3
36,10:2
36,28:5
36,32:1
36,33:5
36,35:2
36,37:2
36,44:4
37,2:3
37,4:2
37,7:3
37,8:1
37,25:2
37,28:3
37,32:1
37,33:3
37,38:2
37,40:2
37,41:2
37,44:2
38,4:4
38,7:5
38,8:3
38,10:2
38,28:5
38,32:1
38,33:5
38,35:2
38,37:2
38,39:2
38,40:4
38,41:4
38,42:4
38,43:4
38,44:4
38,45:5
38,46:5
38,47:5
38,48:4
38,49:5
38,50:4
38,51:5
38,52:1
39,2:3
39,4:2
39,7:3
39,8:1
39,25:2
39,28:3
39,32:1
39,33:3
39,38:2
39,40:2
39,41:2
39,42:2
39,43:2
39,44:2
40,2:1
40,7:1
40,8:1
40,10:2
40,25:4
40,28:1
40,32:3
40,33:1
40,35:2
40,38:4
40,39:2
41,2:1
41,7:1
41,8:1
41,10:2
41,25:4
41,28:1
41,32:3
41,33:1
41,35:2
41,38:4
41,39:2
42,2:1
42,7:1
42,8:1
42,10:2
42,25:4
42,28:1
42,32:3
42,33:1
42,35:2
42,38:4
42,39:2
43,2:1
43,8:1
43,10:2
43,25:4
43,32:3
43,38:4
43,45:1
44,2:1
44,5:2
44,7:1
44,10:2
44,18:3
44,19:1
44,23:1
44,24:4
44,25:4
44,26:1
44,27:2
44,28:1
44,30:4
44,31:1
44,32:3
44,33:1
44,34:4
44,35:2
44,36:4
44,37:2
44,38:4
44,39:2
44,45:1
45,4:1
45,10:3
45,25:5
45,38:5
45,48:1
46,4:1
46,10:3
46,25:5
46,38:5
46,48:1
46,50:1
47,4:1
47,10:3
47,25:5
47,38:5
47,48:1
47,50:1
48,2:1
48,10:2
48,25:4
48,38:4
48,46:1
48,47:1
48,49:1
48,51:1
48,52:3
48,53:3
48,56:2
49,4:1
49,10:3
49,25:5
49,38:5
49,48:1
49,50:1
49,52:4
49,53:4
49,54:1
49,55:1
49,56:3
49,57:3
49,58:3
50,2:1
50,10:2
50,25:4
50,38:4
50,47:1
50,49:1
50,51:1
50,52:3
50,53:3
50,56:2
50,57:2
50,58:2
51,4:1
51,10:3
51,25:5
51,38:5
51,48:1
51,50:1
51,52:4
52,4:3
52,10:1
52,48:3
52,49:4
52,50:3
53,4:3
53,10:1
53,48:3
53,49:4
53,50:3
53,54:3
54,10:2
54,49:1
54,56:2
55,10:2
55,49:1
55,56:2
55,57:2
56,4:2
56,48:2
56,49:3
56,50:2
56,55:2
57,4:2
57,49:3
57,50:2
58,4:2

<setup times backward>
1,5:1
1,10:1
1,18:2
1,24:3
1,27:1
1,30:3
1,32:2
1,34:3
1,35:1
2,1:2
2,3:2
2,4:1
2,5:3
2,6:1
2,8:2
2,9:2
2,10:3
2,11:3
2,12:1
2,13:3
2,14:3
2,15:1
2,16:1
2,17:2
2,18:4
2,19:2
2,20:4
2,21:1
2,22:1
2,23:2
2,24:5
2,26:2
2,27:3
2,29:1
2,30:5
2,32:4
2,34:5
2,35:3
2,36:5
2,37:3
2,39:3
2,40:1
2,41:1
2,42:1
2,43:1
2,44:1
2,48:1
2,50:1
3,5:1
3,10:1
3,11:1
3,13:1
3,14:1
3,18:2
3,20:2
3,24:3
3,25:3
3,32:2
3,35:1
4,1:1
4,3:1
4,5:2
4,8:1
4,9:1
4,11:2
4,13:2
4,14:2
4,17:1
4,18:3
4,19:1
4,20:3
4,23:1
4,24:4
4,25:4
4,26:1
4,27:2
4,30:4
4,32:3
4,34:4
4,35:2
4,36:4
4,37:2
4,38:4
4,39:2
4,52:3
4,53:3
4,56:2
4,57:2
4,58:2
5,18:1
5,20:1
5,24:2
5,25:2
5,30:2
5,32:1
5,34:2
6,1:1
6,3:1
6,5:2
6,8:1
6,9:1
6,10:2
6,11:2
6,13:2
6,14:2
6,17:1
6,18:3
6,19:1
6,20:3
6,25:4
6,26:1
6,27:2
6,30:4
6,32:3
6,34:4
6,35:2
7,1:2
7,3:2
7,4:1
7,5:3
7,6:1
7,8:2
7,9:2
7,10:3
7,11:3
7,12:1
7,13:3
7,14:3
7,15:1
7,16:1
7,17:2
7,18:4
7,19:2
7,20:4
7,21:1
7,22:1
7,23:2
7,24:5
7,25:5
7,26:2
7,27:3
7,29:1
7,30:5
7,32:4
7,34:5
7,35:3
7,36:5
7,37:3
7,38:5
7,39:3
7,40:1
7,41:1
7,42:1
7,44:1
8,5:1
8,10:1
8,11:1
8,13:1
8,14:1
8,18:2
8,20:2
8,24:3
8,25:3
8,27:1
8,30:3
8,32:2
8,34:3
8,35:1
8,36:3
8,37:1
8,38:3
8,39:1
9,5:1
9,10:1
9,18:2
9,24:3
9,27:1
9,30:3
9,32:2
9,34:3
9,35:1
10,18:1
10,20:1
10,24:2
10,25:2
10,30:2
10,32:1
10,34:2
10,36:2
10,38:2
10,52:1
10,53:1
11,18:1
11,24:2
11,30:2
11,32:1
11,34:2
12,1:1
12,3:1
12,5:2
12,8:1
12,9:1
12,10:2
12,11:2
12,13:2
12,14:2
12,18:3
12,19:1
12,23:1
12,24:4
12,27:2
12,30:4
12,32:3
12,34:4
12,35:2
13,18:1
13,24:2
13,30:2
13,32:1
13,34:2
14,18:1
14,24:2
14,30:2
14,32:1
14,34:2
15,1:1
15,3:1
15,5:2
15,8:1
15,9:1
15,10:2
15,11:2
15,13:2
15,14:2
15,18:3
15,19:1
15,23:1
15,24:4
15,27:2
15,30:4
15,32:3
15,34:4
15,35:2
16,1:1
16,3:1
16,5:2
16,8:1
16,9:1
16,10:2
16,11:2
16,13:2
16,14:2
16,17:1
16,20:3
16,24:4
16,25:4
16,26:1
16,27:2
16,30:4
16,32:3
16,34:4
16,35:2
17,5:1
17,10:1
17,11:1
17,13:1
17,14:1
17,18:2
17,24:3
17,27:1
17,30:3
17,32:2
17,34:3
17,35:1
18,24:1
18,25:1
18,30:1
18,34:1
19,5:1
19,10:1
19,11:1
19,13:1
19,14:1
19,18:2
19,20:2
19,24:3
19,25:3
19,27:1
19,30:3
19,32:2
19,34:3
19,35:1
20,24:1
20,30:1
20,34:1
21,1:1
21,3:1
21,5:2
21,8:1
21,9:1
21,10:2
21,11:2
21,13:2
21,14:2
21,17:1
21,18:3
21,19:1
21,20:3
21,23:1
21,24:4
21,25:4
21,27:2
21,30:4
21,32:3
21,34:4
21,35:2
22,1:1
22,3:1
22,5:2
22,8:1
22,9:1
22,10:2
22,11:2
22,13:2
22,14:2
22,17:1
22,18:3
22,19:1
22,20:3
22,23:1
22,24:4
22,25:4
22,26:1
22,32:3
22,35:2
23,5:1
23,10:1
23,11:1
23,13:1
23,14:1
23,18:2
23,20:2
23,24:3
23,25:3
23,27:1
23,30:3
23,32:2
23,34:3
23,35:1
26,5:1
26,10:1
26,11:1
26,13:1
26,14:1
26,18:2
26,20:2
26,24:3
26,25:3
26,27:1
26,30:3
26,32:2
26,34:3
26,35:1
27,18:1
27,20:1
27,24:2
27,25:2
27,32:1
28,1:2
28,3:2
28,4:1
28,5:3
28,6:1
28,8:2
28,9:2
28,10:3
28,11:3
28,12:1
28,13:3
28,14:3
28,15:1
28,16:1
28,17:2
28,18:4
28,19:2
28,20:4
28,21:1
28,22:1
28,23:2
28,24:5
28,25:5
28,26:2
28,27:3
28,29:1
28,30:5
28,34:5
28,36:5
28,37:3
28,38:5
28,39:3
28,40:1
28,41:1
28,42:1
28,44:1
29,1:1
29,3:1
29,5:2
29,8:1
29,9:1
29,10:2
29,11:2
29,13:2
29,14:2
29,17:1
29,18:3
29,19:1
29,20:3
29,23:1
29,24:4
29,25:4
29,26:1
29,27:2
29,30:4
29,32:3
29,34:4
29,35:2
31,1:2
31,3:2
31,4:1
31,5:3
31,6:1
31,8:2
31,9:2
31,10:3
31,11:3
31,12:1
31,13:3
31,14:3
31,15:1
31,16:1
31,17:2
31,18:4
31,19:2
31,20:4
31,21:1
31,22:1
31,23:2
31,24:5
31,25:5
31,26:2
31,27:3
31,29:1
31,30:5
31,32:4
31,34:5
31,35:3
31,44:1
32,24:1
32,25:1
32,30:1
32,34:1
32,36:1
32,38:1
33,1:2
33,3:2
33,4:1
33,5:3
33,6:1
33,8:2
33,9:2
33,10:3
33,11:3
33,12:1
33,13:3
33,14:3
33,15:1
33,16:1
33,17:2
33,18:4
33,19:2
33,20:4
33,21:1
33,22:1
33,23:2
33,24:5
33,25:5
33,26:2
33,27:3
33,29:1
33,30:5
33,32:4
33,34:5
33,36:5
33,37:3
33,38:5
33,39:3
33,40:1
33,41:1
33,42:1
33,44:1
35,18:1
35,20:1
35,24:2
35,25:2
35,30:2
35,32:1
35,34:2
35,36:2
35,38:2
37,18:1
37,20:1
37,24:2
37,25:2
37,30:2
37,32:1
37,34:2
37,36:2
37,38:2
39,18:1
39,20:1
39,24:2
39,25:2
39,30:2
39,32:1
39,34:2
39,36:2
39,38:2
40,1:1
40,3:1
40,5:2
40,8:1
40,9:1
40,10:2
40,11:2
40,13:2
40,14:2
40,17:1
40,18:3
40,19:1
40,20:3
40,23:1
40,24:4
40,25:4
40,26:1
40,27:2
40,30:4
40,32:3
40,34:4
40,35:2
40,36:4
40,37:2
40,38:4
40,39:2
41,1:1
41,3:1
41,5:2
41,8:1
41,9:1
41,10:2
41,11:2
41,13:2
41,14:2
41,17:1
41,18:3
41,19:1
41,20:3
41,23:1
41,24:4
41,25:4
41,26:1
41,27:2
41,30:4
41,32:3
41,34:4
41,35:2
41,36:4
41,37:2
41,38:4
41,39:2
42,1:1
42,3:1
42,5:2
42,8:1
42,9:1
42,10:2
42,11:2
42,13:2
42,14:2
42,17:1
42,18:3
42,19:1
42,20:3
42,23:1
42,24:4
42,25:4
42,26:1
42,27:2
42,30:4
42,32:3
42,34:4
42,35:2
42,36:4
42,37:2
42,38:4
42,39:2
43,1:1
43,3:1
43,5:2
43,8:1
43,9:1
43,10:2
43,11:2
43,13:2
43,14:2
43,17:1
43,18:3
43,19:1
43,20:3
43,23:1
43,24:4
43,25:4
43,26:1
43,27:2
43,30:4
43,32:3
43,34:4
43,35:2
43,36:4
43,37:2
43,38:4
43,39:2
44,1:1
44,3:1
44,5:2
44,8:1
44,9:1
44,10:2
44,11:2
44,13:2
44,14:2
44,17:1
44,18:3
44,19:1
44,20:3
44,23:1
44,24:4
44,25:4
44,26:1
44,27:2
44,30:4
44,32:3
44,34:4
44,35:2
44,36:4
44,37:2
44,38:4
44,39:2
45,1:2
45,3:2
45,4:1
45,5:3
45,6:1
45,8:2
45,9:2
45,10:3
45,11:3
45,12:1
45,13:3
45,14:3
45,15:1
45,16:1
45,17:2
45,18:4
45,19:2
45,20:4
45,21:1
45,22:1
45,23:2
45,24:5
45,25:5
45,26:2
45,27:3
45,29:1
45,30:5
45,32:4
45,34:5
45,35:3
45,36:5
45,37:3
45,38:5
45,39:3
45,40:1
45,41:1
45,42:1
45,43:1
45,44:1
46,1:2
46,3:2
46,4:1
46,5:3
46,6:1
46,8:2
46,9:2
46,10:3
46,11:3
46,12:1
46,13:3
46,14:3
46,15:1
46,16:1
46,17:2
46,18:4
46,19:2
46,20:4
46,21:1
46,22:1
46,23:2
46,24:5
46,25:5
46,26:2
46,27:3
46,29:1
46,30:5
46,32:4
46,34:5
46,35:3
46,36:5
46,37:3
46,38:5
46,39:3
46,40:1
46,41:1
46,42:1
46,43:1
46,44:1
46,48:1
47,1:2
47,3:2
47,4:1
47,5:3
47,6:1
47,8:2
47,9:2
47,10:3
47,11:3
47,12:1
47,13:3
47,14:3
47,15:1
47,16:1
47,17:2
47,18:4
47,19:2
47,20:4
47,21:1
47,22:1
47,23:2
47,24:5
47,25:5
47,26:2
47,27:3
47,29:1
47,30:5
47,32:4
47,34:5
47,35:3
47,36:5
47,37:3
47,38:5
47,39:3
47,40:1
47,41:1
47,42:1
47,43:1
47,44:1
47,48:1
47,50:1
48,1:1
48,3:1
48,5:2
48,8:1
48,9:1
48,10:2
48,11:2
48,13:2
48,14:2
48,17:1
48,18:3
48,19:1
48,20:3
48,23:1
48,24:4
48,25:4
48,26:1
48,27:2
48,30:4
48,32:3
48,34:4
48,35:2
48,36:4
48,37:2
48,38:4
48,39:2
48,52:3
48,53:3
48,56:2
49,1:2
49,3:2
49,4:1
49,5:3
49,6:1
49,8:2
49,9:2
49,10:3
49,11:3
49,12:1
49,13:3
49,14:3
49,15:1
49,16:1
49,17:2
49,18:4
49,19:2
49,20:4
49,21:1
49,22:1
49,23:2
49,24:5
49,25:5
49,26:2
49,27:3
49,29:1
49,30:5
49,32:4
49,34:5
49,35:3
49,36:5
49,37:3
49,38:5
49,39:3
49,40:1
49,41:1
49,42:1
49,43:1
49,44:1
49,48:1
49,50:1
49,52:4
49,53:4
49,54:1
49,55:1
49,56:3
49,57:3
50,1:1
50,3:1
50,5:2
50,8:1
50,9:1
50,10:2
50,11:2
50,13:2
50,14:2
50,17:1
50,18:3
50,19:1
50,20:3
50,23:1
50,24:4
50,25:4
50,26:1
50,27:2
50,30:4
50,32:3
50,34:4
50,35:2
50,36:4
50,37:2
50,38:4
50,39:2
50,52:3
50,53:3
50,56:2
50,57:2
51,1:2
51,3:2
51,4:1
51,5:3
51,6:1
51,8:2
51,9:2
51,10:3
51,11:3
51,12:1
51,13:3
51,14:3
51,15:1
51,16:1
51,17:2
51,18:4
51,19:2
51,20:4
51,21:1
51,22:1
51,23:2
51,24:5
51,25:5
51,26:2
51,27:3
51,29:1
51,30:5
51,32:4
51,34:5
51,35:3
51,36:5
51,37:3
51,38:5
51,39:3
51,40:1
51,41:1
51,42:1
51,43:1
51,44:1
51,48:1
51,50:1
52,24:1
52,25:1
52,30:1
52,34:1
52,36:1
52,38:1
53,24:1
53,25:1
53,30:1
53,34:1
53,36:1
53,38:1
54,1:1
54,3:1
54,5:2
54,8:1
54,9:1
54,10:2
54,11:2
54,13:2
54,14:2
54,17:1
54,18:3
54,19:1
54,20:3
54,23:1
54,24:4
54,25:4
54,26:1
54,27:2
54,30:4
54,32:3
54,34:4
54,35:2
54,36:4
54,37:2
54,38:4
54,39:2
54,52:3
54,53:3
55,1:1
55,3:1
55,5:2
55,8:1
55,9:1
55,10:2
55,11:2
55,13:2
55,14:2
55,17:1
55,18:3
55,19:1
55,20:3
55,23:1
55,24:4
55,25:4
55,26:1
55,27:2
55,30:4
55,32:3
55,34:4
55,35:2
55,36:4
55,37:2
55,38:4
55,39:2
55,52:3
55,53:3
55,56:2
56,18:1
56,20:1
56,24:2
56,25:2
56,30:2
56,32:1
56,34:2
56,36:2
56,38:2
56,52:1
56,53:1
57,18:1
57,20:1
57,24:2
57,25:2
57,30:2
57,32:1
57,34:2
57,36:2
57,38:2
57,52:1
57,53:1
58,18:1
58,20:1
58,24:2
58,25:2
58,30:2
58,32:1
58,34:2
58,36:2
58,38:2
58,52:1
58,53:1

<end>

<optimal SALBP-1 value>
24


<rand seed>
467321153

